/*********************************************
 * OPL 12.6.0.0 Data
 * Author: QZ61P8
 * Creation Date: 10.07.2014 at 08:59:12
 *********************************************/


nNetworks = 1;
nTime = 100;
nInterfaceTypes = 2;
nFlows = 16;

//channel model: generated Fri May 27 12:35:52 CEST 2016
availChunkBuckets = //[Networks, Time]  
[
	[45, 45, 45, 45, 45, 45, 45, 45, 45, 45, 45, 45, 45, 45, 45, 45, 45, 45, 45, 45, 45, 45, 45, 45, 45, 45, 45, 45, 45, 45, 45, 45, 45, 45, 45, 45, 45, 45, 45, 45, 45, 45, 45, 45, 45, 45, 45, 45, 45, 45, 45, 45, 45, 45, 45, 45, 45, 45, 45, 45, 45, 45, 45, 45, 45, 45, 45, 45, 45, 45, 45, 45, 45, 45, 45, 45, 45, 45, 45, 45, 45, 45, 45, 45, 45, 45, 45, 45, 45, 45, 45, 45, 45, 45, 45, 45, 45, 45, 45, 45]
];
	
network_cost = //[Networks] 
	[16];				//static cost per channel (change later to more realistic model)
network_lcy =
	[12];
network_jit =
	[7];	

network_type= //[Networks] 				//each channel has a specific type; e.g. WiFi, LTE..
	[2];		
nClientInterfaces = //[InterfaceTypes]
	[1, 1];	

//requests: generated Fri May 27 12:35:52 CEST 2016
nChunks = 				[875, 1925, 525, 1750, 800, 1760, 480, 1600, 425, 935, 255, 850, 1100, 2420, 660, 2200];		//[Flows]		
deadline= 				[45, 86, 79, 72, 66, 84, 83, 10, 86, 87, 34, 60, 66, 90, 53, 15];		//[Flows] 
prefStartTime = 		[12, 0, 48, 69, 33, 0, 40, 8, 53, 0, 21, 52, 33, 0, 3, 13];		//[Flows]
tpMaxWindow = 			[1, 1, 1, 1, 1, 1, 1, 1, 1, 1, 1, 1, 1, 1, 1, 1];		//[Flows]	//0 says not relevant/no maximum transfer rate; upper throughput limit
tpMaxChunks = 			[100000, 100000, 16, 100000, 100000, 100000, 11, 100000, 100000, 100000, 19, 100000, 100000, 100000, 13, 100000]; 		//maximum of chunks in above specified time frame
tpMinWindow = 			[15, 100000, 1, 100000, 21, 100000, 1, 100000, 14, 100000, 1, 100000, 18, 100000, 1, 100000];		//[Flows]  //1000 says not relevant / no minimum transfer rate
tpMinChunks = 			[97, 1, 4, 1, 126, 1, 2, 1, 42, 1, 9, 1, 148, 1, 3, 1]; 		//minimum of chunks in above specified time frame; lower throughput limit
latency = 				[10, 10, 4, 10, 10, 10, 4, 10, 10, 10, 4, 10, 10, 10, 4, 10];	
jitter = 				[10, 10, 4, 10, 10, 10, 4, 10, 10, 10, 4, 10, 10, 10, 4, 10];

hysteresis = 500;
importance = [
	[8, 0, 20, 7, 7, 0, 20, 9, 7, 0, 20, 7, 8, 0, 20, 9],	//deadline
	[2, 0, 10, 8, 2, 0, 10, 9, 3, 0, 10, 9, 5, 0, 10, 9],	//start time
	[, , , , , , , , , , , , , , , ],	//throughput upper bound
	[6, 0, 50, 0, 7, 0, 50, 0, 8, 0, 50, 0, 7, 0, 50, 0],	//throughput lower bound
	[6, 4, 5, 18, 4, 3, 5, 18, 4, 4, 3, 17, 5, 2, 5, 17],	//unsched
	[0, 0, 7, 0, 0, 0, 9, 0, 0, 0, 8, 0, 0, 0, 9, 0],	//latency
	[0, 0, 8, 0, 0, 0, 8, 0, 0, 0, 7, 0, 0, 0, 7, 0]	//jitter
]; //[ImportanceTypes, Flows]

//user profiles
userImportance = [9, 2, 8, 9, 8, 1, 9, 6, 8, 2, 11, 10, 8, 1, 8, 6]; //[Flows]
costImp = 15; //former willingness to pay is now inversely proportional value: cost importance 
 
